99 100
39 25 1
6 15 1
48 37 1
10 9 1
10 26 1
42 6 1
25 44 1
51 56 1
42 39 1
40 10 1
13 12 1
69 16 1
37 13 1
50 24 1
13 42 1
80 36 1
43 49 1
21 1 1
25 34 1
48 18 1
10 47 1
68 39 1
99 38 1
37 12 1
39 6 1
48 39 1
33 67 1
38 18 2
30 27 1
5 50 1
80 79 1
50 35 1
33 10 1
23 23 1
24 14 1
98 4 1
2 71 1
58 68 1
58 54 1
23 10 1
44 4 1
93 30 1
6 7 1
10 28 1
47 13 1
83 53 1
15 21 1
72 8 1
11 32 1
39 39 1
35 98 1
21 49 1
38 14 1
69 36 1
18 34 1
93 50 1
83 7 1
34 44 1
11 33 1
84 16 1
25 12 1
24 15 1
17 43 1
23 42 1
36 28 1
75 96 1
34 16 1
31 29 1
9 69 1
39 40 1
62 100 1
50 29 1
44 46 1
14 45 1
3 45 1
87 40 1
93 47 1
1 12 1
5 3 1
73 62 1
48 11 1
49 41 1
19 21 1
28 47 1
78 35 1
9 87 1
45 2 1
96 43 1
49 22 1
31 33 1
81 94 1
21 50 1
42 79 1
14 46 1
31 48 1
10 20 1
47 30 1
9 21 1
41 14 1
100 100 
100 100 
100 100 
100 100 
100 100 
100 100 
100 100 
100 100 
100 100 
100 100 
100 100 
100 100 
100 100 
100 100 
100 100 
100 100 
100 100 
100 100 
100 100 
100 100 
100 100 
100 100 
100 100 
100 100 
100 100 
100 100 
100 100 
100 100 
100 100 
100 100 
100 100 
100 100 
100 100 
100 100 
100 100 
100 100 
100 100 
100 100 
100 100 
100 100 
100 100 
100 100 
100 100 
100 100 
100 100 
100 100 
100 100 
100 100 
100 100 
100 100 
100 100 
100 100 
100 100 
100 100 
100 100 
100 100 
100 100 
100 100 
100 100 
100 100 
100 100 
100 100 
100 100 
100 100 
100 100 
100 100 
100 100 
100 100 
100 100 
100 100 
100 100 
100 100 
100 100 
100 100 
100 100 
100 100 
100 100 
100 100 
100 100 
100 100 
100 100 
100 100 
100 100 
100 100 
100 100 
100 100 
100 100 
100 100 
100 100 
100 100 
100 100 
100 100 
100 100 
100 100 
100 100 
100 100 
100 100 
100 100 
100 100 
100 100 
100 100 
